NAME: line_38_33
TYPE: TSP
COMMENT: srandom_38_33
DIMENSION: 38
EDGE_WEIGHT_TYPE: EUC_2D
NODE_COORD_SECTION
1 1134 3734
2 174 2244
3 1737 752
4 1793 1034
5 2205 1996
6 3674 3437
7 4988 122
8 3854 873
9 3661 3843
10 3540 1834
11 2958 4084
12 3937 3445
13 4119 3734
14 1604 3304
15 4843 3264
16 1999 2544
17 3920 4009
18 1792 1298
19 3249 1355
20 1157 3007
21 1170 3170
22 2891 3852
23 3006 1197
24 2191 3092
25 261 4414
26 4939 1649
27 4952 2069
28 2166 2873
29 774 4533
30 1575 4149
31 2188 883
32 3771 1725
33 4370 4941
34 3268 2933
35 1247 909
36 1605 728
37 1004 631
38 1045 4513
